
  24    0


   0  12 2 3 4 5 6 7 10 11 20 21 22 23 
   1   4 16 14 13 8 
  10   3 19 13 12 
   5   3 17 14 12 
   2   2 18 14 
   2   2 17 13 
  10   2 16 12 
   3   1 9 
   5   1 12 
   6   1 15 
   3   1 15 
   9   1 24
   4   1 24
   3   1 24
   4   1 24
   9   1 24
   6   1 24
   5   1 24
   1   1 24
   9   1 24
   2   1 24
   2   1 24
   1   1 24
   0   0 
